(declare-sort Loc 0)
(declare-const l0 Loc)
(declare-const l1 Loc)
(declare-const l2 Loc)
(declare-const l3 Loc)
(declare-const l4 Loc)
(declare-const l5 Loc)
(declare-const l6 Loc)
(declare-const l7 Loc)
(declare-const l8 Loc)
(declare-const l9 Loc)
(declare-const l10 Loc)
(declare-const l11 Loc)
(declare-const l12 Loc)
(declare-const l13 Loc)
(declare-const l14 Loc)
(declare-const l15 Loc)
(declare-const l16 Loc)
(declare-const l17 Loc)
(declare-const l18 Loc)
(declare-const l19 Loc)
(declare-const l20 Loc)
(declare-const l21 Loc)
(declare-const l22 Loc)
(declare-const l23 Loc)
(declare-const l24 Loc)
(declare-const l25 Loc)
(assert (distinct l0 l1 l2 l3 l4 l5 l6 l7 l8 l9 l10 l11 l12 l13 l14 l15 l16 l17 l18 l19 l20 l21 l22 l23 l24 l25))

(define-fun cfg_init ( (pc Loc) (src Loc) (rel Bool) ) Bool
  (and (= pc src) rel))

(define-fun cfg_trans2 ( (pc Loc) (src Loc)
                         (pc1 Loc) (dst Loc)
                         (rel Bool) ) Bool
  (and (= pc src) (= pc1 dst) rel))

(define-fun cfg_trans3 ( (pc Loc) (exit Loc)
                         (pc1 Loc) (call Loc)
                         (pc2 Loc) (return Loc)
                         (rel Bool) ) Bool
  (and (= pc exit) (= pc1 call) (= pc2 return) rel))

(define-fun init_main ( (pc^0 Loc) (i1^0 Int) (i2^0 Int) (i2rev^0 Int) (i3^0 Int) (i3rev^0 Int) (ibit^0 Int) (idim^0 Int) (ifp1^0 Int) (ifp2^0 Int) (ip1^0 Int) (ip2^0 Int) (ip3^0 Int) (k1^0 Int) (k2^0 Int) (n^0 Int) (ndim^0 Int) (nprev^0 Int) (nrem^0 Int) (ntot^0 Int) (tempi^0 Int) (tempr^0 Int) (theta^0 Int) (wi^0 Int) (wpi^0 Int) (wpr^0 Int) (wr^0 Int) (wtemp^0 Int) ) Bool
  (cfg_init pc^0 l25 true))

(define-fun next_main (
                 (pc^0 Loc) (i1^0 Int) (i2^0 Int) (i2rev^0 Int) (i3^0 Int) (i3rev^0 Int) (ibit^0 Int) (idim^0 Int) (ifp1^0 Int) (ifp2^0 Int) (ip1^0 Int) (ip2^0 Int) (ip3^0 Int) (k1^0 Int) (k2^0 Int) (n^0 Int) (ndim^0 Int) (nprev^0 Int) (nrem^0 Int) (ntot^0 Int) (tempi^0 Int) (tempr^0 Int) (theta^0 Int) (wi^0 Int) (wpi^0 Int) (wpr^0 Int) (wr^0 Int) (wtemp^0 Int)
                 (pc^post Loc) (i1^post Int) (i2^post Int) (i2rev^post Int) (i3^post Int) (i3rev^post Int) (ibit^post Int) (idim^post Int) (ifp1^post Int) (ifp2^post Int) (ip1^post Int) (ip2^post Int) (ip3^post Int) (k1^post Int) (k2^post Int) (n^post Int) (ndim^post Int) (nprev^post Int) (nrem^post Int) (ntot^post Int) (tempi^post Int) (tempr^post Int) (theta^post Int) (wi^post Int) (wpi^post Int) (wpr^post Int) (wr^post Int) (wtemp^post Int)
             ) Bool
  (or
    (cfg_trans2 pc^0 l0 pc^post l1 (and (and (and (and (and (and (and (and (and (and (and (and (and (and (and (and (and (and (and (and (and (and (and (and (and (and (= i1^0 i1^post) (= i2^0 i2^post)) (= i2rev^0 i2rev^post)) (= i3^0 i3^post)) (= i3rev^0 i3rev^post)) (= ibit^0 ibit^post)) (= idim^0 idim^post)) (= ifp1^0 ifp1^post)) (= ifp2^0 ifp2^post)) (= ip1^0 ip1^post)) (= ip2^0 ip2^post)) (= ip3^0 ip3^post)) (= k1^0 k1^post)) (= k2^0 k2^post)) (= n^0 n^post)) (= ndim^0 ndim^post)) (= nprev^0 nprev^post)) (= nrem^0 nrem^post)) (= ntot^0 ntot^post)) (= tempi^0 tempi^post)) (= tempr^0 tempr^post)) (= theta^0 theta^post)) (= wi^0 wi^post)) (= wpi^0 wpi^post)) (= wpr^0 wpr^post)) (= wr^0 wr^post)) (= wtemp^0 wtemp^post)))
    (cfg_trans2 pc^0 l2 pc^post l3 (and (and (and (and (and (and (and (and (and (and (and (and (and (and (and (and (and (and (and (and (and (and (and (and (and (and (and (<= (+ 1 ip3^0) (+ 0 i2^0)) (= i1^post (+ 2 i1^0))) (= i2^0 i2^post)) (= i2rev^0 i2rev^post)) (= i3^0 i3^post)) (= i3rev^0 i3rev^post)) (= ibit^0 ibit^post)) (= idim^0 idim^post)) (= ifp1^0 ifp1^post)) (= ifp2^0 ifp2^post)) (= ip1^0 ip1^post)) (= ip2^0 ip2^post)) (= ip3^0 ip3^post)) (= k1^0 k1^post)) (= k2^0 k2^post)) (= n^0 n^post)) (= ndim^0 ndim^post)) (= nprev^0 nprev^post)) (= nrem^0 nrem^post)) (= ntot^0 ntot^post)) (= tempi^0 tempi^post)) (= tempr^0 tempr^post)) (= theta^0 theta^post)) (= wi^0 wi^post)) (= wpi^0 wpi^post)) (= wpr^0 wpr^post)) (= wr^0 wr^post)) (= wtemp^0 wtemp^post)))
    (cfg_trans2 pc^0 l2 pc^post l4 (and (and (and (and (and (and (and (and (and (and (and (and (and (and (and (and (and (and (and (and (and (and (and (and (and (and (and (<= (+ 0 i2^0) (+ 0 ip3^0)) (= k1^post (+ 0 i2^0))) (= k2^post (+ (+ 0 ifp1^0) k1^post))) (= tempr^post tempr^post)) (= tempi^post tempi^post)) (= i2^post (+ (+ 0 i2^0) ifp2^0))) (= i1^0 i1^post)) (= i2rev^0 i2rev^post)) (= i3^0 i3^post)) (= i3rev^0 i3rev^post)) (= ibit^0 ibit^post)) (= idim^0 idim^post)) (= ifp1^0 ifp1^post)) (= ifp2^0 ifp2^post)) (= ip1^0 ip1^post)) (= ip2^0 ip2^post)) (= ip3^0 ip3^post)) (= n^0 n^post)) (= ndim^0 ndim^post)) (= nprev^0 nprev^post)) (= nrem^0 nrem^post)) (= ntot^0 ntot^post)) (= theta^0 theta^post)) (= wi^0 wi^post)) (= wpi^0 wpi^post)) (= wpr^0 wpr^post)) (= wr^0 wr^post)) (= wtemp^0 wtemp^post)))
    (cfg_trans2 pc^0 l4 pc^post l2 (and (and (and (and (and (and (and (and (and (and (and (and (and (and (and (and (and (and (and (and (and (and (and (and (and (and (= i1^0 i1^post) (= i2^0 i2^post)) (= i2rev^0 i2rev^post)) (= i3^0 i3^post)) (= i3rev^0 i3rev^post)) (= ibit^0 ibit^post)) (= idim^0 idim^post)) (= ifp1^0 ifp1^post)) (= ifp2^0 ifp2^post)) (= ip1^0 ip1^post)) (= ip2^0 ip2^post)) (= ip3^0 ip3^post)) (= k1^0 k1^post)) (= k2^0 k2^post)) (= n^0 n^post)) (= ndim^0 ndim^post)) (= nprev^0 nprev^post)) (= nrem^0 nrem^post)) (= ntot^0 ntot^post)) (= tempi^0 tempi^post)) (= tempr^0 tempr^post)) (= theta^0 theta^post)) (= wi^0 wi^post)) (= wpi^0 wpi^post)) (= wpr^0 wpr^post)) (= wr^0 wr^post)) (= wtemp^0 wtemp^post)))
    (cfg_trans2 pc^0 l5 pc^post l6 (and (and (and (and (and (and (and (and (and (and (and (and (and (and (and (and (and (and (and (and (and (and (and (and (and (and (and (<= (+ (+ -1 i3^0) ip1^0) (+ 0 i1^0)) (= wtemp^post (+ 0 wr^0))) (= wr^post wr^post)) (= wi^post wi^post)) (= i3^post (+ (+ 0 i3^0) ip1^0))) (= i1^0 i1^post)) (= i2^0 i2^post)) (= i2rev^0 i2rev^post)) (= i3rev^0 i3rev^post)) (= ibit^0 ibit^post)) (= idim^0 idim^post)) (= ifp1^0 ifp1^post)) (= ifp2^0 ifp2^post)) (= ip1^0 ip1^post)) (= ip2^0 ip2^post)) (= ip3^0 ip3^post)) (= k1^0 k1^post)) (= k2^0 k2^post)) (= n^0 n^post)) (= ndim^0 ndim^post)) (= nprev^0 nprev^post)) (= nrem^0 nrem^post)) (= ntot^0 ntot^post)) (= tempi^0 tempi^post)) (= tempr^0 tempr^post)) (= theta^0 theta^post)) (= wpi^0 wpi^post)) (= wpr^0 wpr^post)))
    (cfg_trans2 pc^0 l5 pc^post l4 (and (and (and (and (and (and (and (and (and (and (and (and (and (and (and (and (and (and (and (and (and (and (and (and (and (and (and (<= (+ 0 i1^0) (+ (+ -2 i3^0) ip1^0)) (= i1^0 i1^post)) (= i2^0 i2^post)) (= i2rev^0 i2rev^post)) (= i3^0 i3^post)) (= i3rev^0 i3rev^post)) (= ibit^0 ibit^post)) (= idim^0 idim^post)) (= ifp1^0 ifp1^post)) (= ifp2^0 ifp2^post)) (= ip1^0 ip1^post)) (= ip2^0 ip2^post)) (= ip3^0 ip3^post)) (= k1^0 k1^post)) (= k2^0 k2^post)) (= n^0 n^post)) (= ndim^0 ndim^post)) (= nprev^0 nprev^post)) (= nrem^0 nrem^post)) (= ntot^0 ntot^post)) (= tempi^0 tempi^post)) (= tempr^0 tempr^post)) (= theta^0 theta^post)) (= wi^0 wi^post)) (= wpi^0 wpi^post)) (= wpr^0 wpr^post)) (= wr^0 wr^post)) (= wtemp^0 wtemp^post)))
    (cfg_trans2 pc^0 l3 pc^post l5 (and (and (and (and (and (and (and (and (and (and (and (and (and (and (and (and (and (and (and (and (and (and (and (and (and (and (= i1^0 i1^post) (= i2^0 i2^post)) (= i2rev^0 i2rev^post)) (= i3^0 i3^post)) (= i3rev^0 i3rev^post)) (= ibit^0 ibit^post)) (= idim^0 idim^post)) (= ifp1^0 ifp1^post)) (= ifp2^0 ifp2^post)) (= ip1^0 ip1^post)) (= ip2^0 ip2^post)) (= ip3^0 ip3^post)) (= k1^0 k1^post)) (= k2^0 k2^post)) (= n^0 n^post)) (= ndim^0 ndim^post)) (= nprev^0 nprev^post)) (= nrem^0 nrem^post)) (= ntot^0 ntot^post)) (= tempi^0 tempi^post)) (= tempr^0 tempr^post)) (= theta^0 theta^post)) (= wi^0 wi^post)) (= wpi^0 wpi^post)) (= wpr^0 wpr^post)) (= wr^0 wr^post)) (= wtemp^0 wtemp^post)))
    (cfg_trans2 pc^0 l7 pc^post l8 (and (and (and (and (and (and (and (and (and (and (and (and (and (and (and (and (and (and (and (and (and (and (and (and (and (and (and (<= (+ 1 ifp1^0) (+ 0 i3^0)) (= ifp1^post (+ 0 ifp2^0))) (= i1^0 i1^post)) (= i2^0 i2^post)) (= i2rev^0 i2rev^post)) (= i3^0 i3^post)) (= i3rev^0 i3rev^post)) (= ibit^0 ibit^post)) (= idim^0 idim^post)) (= ifp2^0 ifp2^post)) (= ip1^0 ip1^post)) (= ip2^0 ip2^post)) (= ip3^0 ip3^post)) (= k1^0 k1^post)) (= k2^0 k2^post)) (= n^0 n^post)) (= ndim^0 ndim^post)) (= nprev^0 nprev^post)) (= nrem^0 nrem^post)) (= ntot^0 ntot^post)) (= tempi^0 tempi^post)) (= tempr^0 tempr^post)) (= theta^0 theta^post)) (= wi^0 wi^post)) (= wpi^0 wpi^post)) (= wpr^0 wpr^post)) (= wr^0 wr^post)) (= wtemp^0 wtemp^post)))
    (cfg_trans2 pc^0 l7 pc^post l3 (and (and (and (and (and (and (and (and (and (and (and (and (and (and (and (and (and (and (and (and (and (and (and (and (and (and (and (<= (+ 0 i3^0) (+ 0 ifp1^0)) (= i1^0 i1^post)) (= i2^0 i2^post)) (= i2rev^0 i2rev^post)) (= i3^0 i3^post)) (= i3rev^0 i3rev^post)) (= ibit^0 ibit^post)) (= idim^0 idim^post)) (= ifp1^0 ifp1^post)) (= ifp2^0 ifp2^post)) (= ip1^0 ip1^post)) (= ip2^0 ip2^post)) (= ip3^0 ip3^post)) (= k1^0 k1^post)) (= k2^0 k2^post)) (= n^0 n^post)) (= ndim^0 ndim^post)) (= nprev^0 nprev^post)) (= nrem^0 nrem^post)) (= ntot^0 ntot^post)) (= tempi^0 tempi^post)) (= tempr^0 tempr^post)) (= theta^0 theta^post)) (= wi^0 wi^post)) (= wpi^0 wpi^post)) (= wpr^0 wpr^post)) (= wr^0 wr^post)) (= wtemp^0 wtemp^post)))
    (cfg_trans2 pc^0 l6 pc^post l7 (and (and (and (and (and (and (and (and (and (and (and (and (and (and (and (and (and (and (and (and (and (and (and (and (and (and (= i1^0 i1^post) (= i2^0 i2^post)) (= i2rev^0 i2rev^post)) (= i3^0 i3^post)) (= i3rev^0 i3rev^post)) (= ibit^0 ibit^post)) (= idim^0 idim^post)) (= ifp1^0 ifp1^post)) (= ifp2^0 ifp2^post)) (= ip1^0 ip1^post)) (= ip2^0 ip2^post)) (= ip3^0 ip3^post)) (= k1^0 k1^post)) (= k2^0 k2^post)) (= n^0 n^post)) (= ndim^0 ndim^post)) (= nprev^0 nprev^post)) (= nrem^0 nrem^post)) (= ntot^0 ntot^post)) (= tempi^0 tempi^post)) (= tempr^0 tempr^post)) (= theta^0 theta^post)) (= wi^0 wi^post)) (= wpi^0 wpi^post)) (= wpr^0 wpr^post)) (= wr^0 wr^post)) (= wtemp^0 wtemp^post)))
    (cfg_trans2 pc^0 l9 pc^post l0 (and (and (and (and (and (and (and (and (and (and (and (and (and (and (and (and (and (and (and (and (and (and (and (and (and (and (and (<= (+ 0 ip2^0) (+ 0 ifp1^0)) (= nprev^post nprev^post)) (= idim^post (+ -1 idim^0))) (= i1^0 i1^post)) (= i2^0 i2^post)) (= i2rev^0 i2rev^post)) (= i3^0 i3^post)) (= i3rev^0 i3rev^post)) (= ibit^0 ibit^post)) (= ifp1^0 ifp1^post)) (= ifp2^0 ifp2^post)) (= ip1^0 ip1^post)) (= ip2^0 ip2^post)) (= ip3^0 ip3^post)) (= k1^0 k1^post)) (= k2^0 k2^post)) (= n^0 n^post)) (= ndim^0 ndim^post)) (= nrem^0 nrem^post)) (= ntot^0 ntot^post)) (= tempi^0 tempi^post)) (= tempr^0 tempr^post)) (= theta^0 theta^post)) (= wi^0 wi^post)) (= wpi^0 wpi^post)) (= wpr^0 wpr^post)) (= wr^0 wr^post)) (= wtemp^0 wtemp^post)))
    (cfg_trans2 pc^0 l9 pc^post l6 (and (and (and (and (and (and (and (and (and (and (and (and (and (and (and (and (and (and (and (and (and (and (and (and (and (and (and (<= (+ 1 ifp1^0) (+ 0 ip2^0)) (= ifp2^post (+ 0 (* 2 ifp1^0)))) (= theta^post theta^post)) (= wtemp^post wtemp^post)) (= wpr^post wpr^post)) (= wpi^post wpi^post)) (= wr^post 1)) (= wi^post 0)) (= i1^0 i1^post)) (= i2^0 i2^post)) (= i2rev^0 i2rev^post)) (= i3^0 i3^post)) (= i3rev^0 i3rev^post)) (= ibit^0 ibit^post)) (= idim^0 idim^post)) (= ifp1^0 ifp1^post)) (= ip1^0 ip1^post)) (= ip2^0 ip2^post)) (= ip3^0 ip3^post)) (= k1^0 k1^post)) (= k2^0 k2^post)) (= n^0 n^post)) (= ndim^0 ndim^post)) (= nprev^0 nprev^post)) (= nrem^0 nrem^post)) (= ntot^0 ntot^post)) (= tempi^0 tempi^post)) (= tempr^0 tempr^post)))
    (cfg_trans2 pc^0 l8 pc^post l9 (and (and (and (and (and (and (and (and (and (and (and (and (and (and (and (and (and (and (and (and (and (and (and (and (and (and (= i1^0 i1^post) (= i2^0 i2^post)) (= i2rev^0 i2rev^post)) (= i3^0 i3^post)) (= i3rev^0 i3rev^post)) (= ibit^0 ibit^post)) (= idim^0 idim^post)) (= ifp1^0 ifp1^post)) (= ifp2^0 ifp2^post)) (= ip1^0 ip1^post)) (= ip2^0 ip2^post)) (= ip3^0 ip3^post)) (= k1^0 k1^post)) (= k2^0 k2^post)) (= n^0 n^post)) (= ndim^0 ndim^post)) (= nprev^0 nprev^post)) (= nrem^0 nrem^post)) (= ntot^0 ntot^post)) (= tempi^0 tempi^post)) (= tempr^0 tempr^post)) (= theta^0 theta^post)) (= wi^0 wi^post)) (= wpi^0 wpi^post)) (= wpr^0 wpr^post)) (= wr^0 wr^post)) (= wtemp^0 wtemp^post)))
    (cfg_trans2 pc^0 l10 pc^post l11 (and (and (and (and (and (and (and (and (and (and (and (and (and (and (and (and (and (and (and (and (and (and (and (and (and (and (= i2rev^post (+ (+ 0 i2rev^0) ibit^0)) (= i2^post (+ (+ 0 i2^0) ip1^0))) (= i1^0 i1^post)) (= i3^0 i3^post)) (= i3rev^0 i3rev^post)) (= ibit^0 ibit^post)) (= idim^0 idim^post)) (= ifp1^0 ifp1^post)) (= ifp2^0 ifp2^post)) (= ip1^0 ip1^post)) (= ip2^0 ip2^post)) (= ip3^0 ip3^post)) (= k1^0 k1^post)) (= k2^0 k2^post)) (= n^0 n^post)) (= ndim^0 ndim^post)) (= nprev^0 nprev^post)) (= nrem^0 nrem^post)) (= ntot^0 ntot^post)) (= tempi^0 tempi^post)) (= tempr^0 tempr^post)) (= theta^0 theta^post)) (= wi^0 wi^post)) (= wpi^0 wpi^post)) (= wpr^0 wpr^post)) (= wr^0 wr^post)) (= wtemp^0 wtemp^post)))
    (cfg_trans2 pc^0 l12 pc^post l10 (and (and (and (and (and (and (and (and (and (and (and (and (and (and (and (and (and (and (and (and (and (and (and (and (and (and (and (<= (+ 0 i2rev^0) (+ 0 ibit^0)) (= i1^0 i1^post)) (= i2^0 i2^post)) (= i2rev^0 i2rev^post)) (= i3^0 i3^post)) (= i3rev^0 i3rev^post)) (= ibit^0 ibit^post)) (= idim^0 idim^post)) (= ifp1^0 ifp1^post)) (= ifp2^0 ifp2^post)) (= ip1^0 ip1^post)) (= ip2^0 ip2^post)) (= ip3^0 ip3^post)) (= k1^0 k1^post)) (= k2^0 k2^post)) (= n^0 n^post)) (= ndim^0 ndim^post)) (= nprev^0 nprev^post)) (= nrem^0 nrem^post)) (= ntot^0 ntot^post)) (= tempi^0 tempi^post)) (= tempr^0 tempr^post)) (= theta^0 theta^post)) (= wi^0 wi^post)) (= wpi^0 wpi^post)) (= wpr^0 wpr^post)) (= wr^0 wr^post)) (= wtemp^0 wtemp^post)))
    (cfg_trans2 pc^0 l12 pc^post l13 (and (and (and (and (and (and (and (and (and (and (and (and (and (and (and (and (and (and (and (and (and (and (and (and (and (and (and (<= (+ 1 ibit^0) (+ 0 i2rev^0)) (= i2rev^post (+ (+ 0 i2rev^0) (* -1 ibit^0)))) (= ibit^post ibit^post)) (= i1^0 i1^post)) (= i2^0 i2^post)) (= i3^0 i3^post)) (= i3rev^0 i3rev^post)) (= idim^0 idim^post)) (= ifp1^0 ifp1^post)) (= ifp2^0 ifp2^post)) (= ip1^0 ip1^post)) (= ip2^0 ip2^post)) (= ip3^0 ip3^post)) (= k1^0 k1^post)) (= k2^0 k2^post)) (= n^0 n^post)) (= ndim^0 ndim^post)) (= nprev^0 nprev^post)) (= nrem^0 nrem^post)) (= ntot^0 ntot^post)) (= tempi^0 tempi^post)) (= tempr^0 tempr^post)) (= theta^0 theta^post)) (= wi^0 wi^post)) (= wpi^0 wpi^post)) (= wpr^0 wpr^post)) (= wr^0 wr^post)) (= wtemp^0 wtemp^post)))
    (cfg_trans2 pc^0 l14 pc^post l10 (and (and (and (and (and (and (and (and (and (and (and (and (and (and (and (and (and (and (and (and (and (and (and (and (and (and (and (<= (+ 1 ibit^0) (+ 0 ip1^0)) (= i1^0 i1^post)) (= i2^0 i2^post)) (= i2rev^0 i2rev^post)) (= i3^0 i3^post)) (= i3rev^0 i3rev^post)) (= ibit^0 ibit^post)) (= idim^0 idim^post)) (= ifp1^0 ifp1^post)) (= ifp2^0 ifp2^post)) (= ip1^0 ip1^post)) (= ip2^0 ip2^post)) (= ip3^0 ip3^post)) (= k1^0 k1^post)) (= k2^0 k2^post)) (= n^0 n^post)) (= ndim^0 ndim^post)) (= nprev^0 nprev^post)) (= nrem^0 nrem^post)) (= ntot^0 ntot^post)) (= tempi^0 tempi^post)) (= tempr^0 tempr^post)) (= theta^0 theta^post)) (= wi^0 wi^post)) (= wpi^0 wpi^post)) (= wpr^0 wpr^post)) (= wr^0 wr^post)) (= wtemp^0 wtemp^post)))
    (cfg_trans2 pc^0 l14 pc^post l12 (and (and (and (and (and (and (and (and (and (and (and (and (and (and (and (and (and (and (and (and (and (and (and (and (and (and (and (<= (+ 0 ip1^0) (+ 0 ibit^0)) (= i1^0 i1^post)) (= i2^0 i2^post)) (= i2rev^0 i2rev^post)) (= i3^0 i3^post)) (= i3rev^0 i3rev^post)) (= ibit^0 ibit^post)) (= idim^0 idim^post)) (= ifp1^0 ifp1^post)) (= ifp2^0 ifp2^post)) (= ip1^0 ip1^post)) (= ip2^0 ip2^post)) (= ip3^0 ip3^post)) (= k1^0 k1^post)) (= k2^0 k2^post)) (= n^0 n^post)) (= ndim^0 ndim^post)) (= nprev^0 nprev^post)) (= nrem^0 nrem^post)) (= ntot^0 ntot^post)) (= tempi^0 tempi^post)) (= tempr^0 tempr^post)) (= theta^0 theta^post)) (= wi^0 wi^post)) (= wpi^0 wpi^post)) (= wpr^0 wpr^post)) (= wr^0 wr^post)) (= wtemp^0 wtemp^post)))
    (cfg_trans2 pc^0 l13 pc^post l14 (and (and (and (and (and (and (and (and (and (and (and (and (and (and (and (and (and (and (and (and (and (and (and (and (and (and (= i1^0 i1^post) (= i2^0 i2^post)) (= i2rev^0 i2rev^post)) (= i3^0 i3^post)) (= i3rev^0 i3rev^post)) (= ibit^0 ibit^post)) (= idim^0 idim^post)) (= ifp1^0 ifp1^post)) (= ifp2^0 ifp2^post)) (= ip1^0 ip1^post)) (= ip2^0 ip2^post)) (= ip3^0 ip3^post)) (= k1^0 k1^post)) (= k2^0 k2^post)) (= n^0 n^post)) (= ndim^0 ndim^post)) (= nprev^0 nprev^post)) (= nrem^0 nrem^post)) (= ntot^0 ntot^post)) (= tempi^0 tempi^post)) (= tempr^0 tempr^post)) (= theta^0 theta^post)) (= wi^0 wi^post)) (= wpi^0 wpi^post)) (= wpr^0 wpr^post)) (= wr^0 wr^post)) (= wtemp^0 wtemp^post)))
    (cfg_trans2 pc^0 l15 pc^post l13 (and (and (and (and (and (and (and (and (and (and (and (and (and (and (and (and (and (and (and (and (and (and (and (and (and (and (= ibit^post ibit^post) (= i1^0 i1^post)) (= i2^0 i2^post)) (= i2rev^0 i2rev^post)) (= i3^0 i3^post)) (= i3rev^0 i3rev^post)) (= idim^0 idim^post)) (= ifp1^0 ifp1^post)) (= ifp2^0 ifp2^post)) (= ip1^0 ip1^post)) (= ip2^0 ip2^post)) (= ip3^0 ip3^post)) (= k1^0 k1^post)) (= k2^0 k2^post)) (= n^0 n^post)) (= ndim^0 ndim^post)) (= nprev^0 nprev^post)) (= nrem^0 nrem^post)) (= ntot^0 ntot^post)) (= tempi^0 tempi^post)) (= tempr^0 tempr^post)) (= theta^0 theta^post)) (= wi^0 wi^post)) (= wpi^0 wpi^post)) (= wpr^0 wpr^post)) (= wr^0 wr^post)) (= wtemp^0 wtemp^post)))
    (cfg_trans2 pc^0 l16 pc^post l0 (and (and (and (and (and (and (and (and (and (and (and (and (and (and (and (and (and (and (and (and (and (and (and (and (and (and (and (<= (+ 1 ndim^0) (+ 0 idim^0)) (= nprev^post 1)) (= i1^0 i1^post)) (= i2^0 i2^post)) (= i2rev^0 i2rev^post)) (= i3^0 i3^post)) (= i3rev^0 i3rev^post)) (= ibit^0 ibit^post)) (= idim^0 idim^post)) (= ifp1^0 ifp1^post)) (= ifp2^0 ifp2^post)) (= ip1^0 ip1^post)) (= ip2^0 ip2^post)) (= ip3^0 ip3^post)) (= k1^0 k1^post)) (= k2^0 k2^post)) (= n^0 n^post)) (= ndim^0 ndim^post)) (= nrem^0 nrem^post)) (= ntot^0 ntot^post)) (= tempi^0 tempi^post)) (= tempr^0 tempr^post)) (= theta^0 theta^post)) (= wi^0 wi^post)) (= wpi^0 wpi^post)) (= wpr^0 wpr^post)) (= wr^0 wr^post)) (= wtemp^0 wtemp^post)))
    (cfg_trans2 pc^0 l16 pc^post l17 (and (and (and (and (and (and (and (and (and (and (and (and (and (and (and (and (and (and (and (and (and (and (and (and (and (and (and (<= (+ 0 idim^0) (+ 0 ndim^0)) (= ntot^post ntot^post)) (= idim^post (+ 1 idim^0))) (= i1^0 i1^post)) (= i2^0 i2^post)) (= i2rev^0 i2rev^post)) (= i3^0 i3^post)) (= i3rev^0 i3rev^post)) (= ibit^0 ibit^post)) (= ifp1^0 ifp1^post)) (= ifp2^0 ifp2^post)) (= ip1^0 ip1^post)) (= ip2^0 ip2^post)) (= ip3^0 ip3^post)) (= k1^0 k1^post)) (= k2^0 k2^post)) (= n^0 n^post)) (= ndim^0 ndim^post)) (= nprev^0 nprev^post)) (= nrem^0 nrem^post)) (= tempi^0 tempi^post)) (= tempr^0 tempr^post)) (= theta^0 theta^post)) (= wi^0 wi^post)) (= wpi^0 wpi^post)) (= wpr^0 wpr^post)) (= wr^0 wr^post)) (= wtemp^0 wtemp^post)))
    (cfg_trans2 pc^0 l18 pc^post l19 (and (and (and (and (and (and (and (and (and (and (and (and (and (and (and (and (and (and (and (and (and (and (and (and (and (and (and (<= (+ 1 ip3^0) (+ 0 i3^0)) (= i1^post (+ 2 i1^0))) (= i2^0 i2^post)) (= i2rev^0 i2rev^post)) (= i3^0 i3^post)) (= i3rev^0 i3rev^post)) (= ibit^0 ibit^post)) (= idim^0 idim^post)) (= ifp1^0 ifp1^post)) (= ifp2^0 ifp2^post)) (= ip1^0 ip1^post)) (= ip2^0 ip2^post)) (= ip3^0 ip3^post)) (= k1^0 k1^post)) (= k2^0 k2^post)) (= n^0 n^post)) (= ndim^0 ndim^post)) (= nprev^0 nprev^post)) (= nrem^0 nrem^post)) (= ntot^0 ntot^post)) (= tempi^0 tempi^post)) (= tempr^0 tempr^post)) (= theta^0 theta^post)) (= wi^0 wi^post)) (= wpi^0 wpi^post)) (= wpr^0 wpr^post)) (= wr^0 wr^post)) (= wtemp^0 wtemp^post)))
    (cfg_trans2 pc^0 l18 pc^post l20 (exists ( (tempr^1 Int) ) (and (and (and (and (and (and (and (and (and (and (and (and (and (and (and (and (and (and (and (and (and (and (and (and (and (and (and (and (<= (+ 0 i3^0) (+ 0 ip3^0)) (= i3rev^post (+ (+ (+ 0 (* -1 i2^0)) i2rev^0) i3^0))) (= tempr^1 tempr^1)) (= tempr^post tempr^post)) (= i3^post (+ (+ 0 i3^0) ip2^0))) (= i1^0 i1^post)) (= i2^0 i2^post)) (= i2rev^0 i2rev^post)) (= ibit^0 ibit^post)) (= idim^0 idim^post)) (= ifp1^0 ifp1^post)) (= ifp2^0 ifp2^post)) (= ip1^0 ip1^post)) (= ip2^0 ip2^post)) (= ip3^0 ip3^post)) (= k1^0 k1^post)) (= k2^0 k2^post)) (= n^0 n^post)) (= ndim^0 ndim^post)) (= nprev^0 nprev^post)) (= nrem^0 nrem^post)) (= ntot^0 ntot^post)) (= tempi^0 tempi^post)) (= theta^0 theta^post)) (= wi^0 wi^post)) (= wpi^0 wpi^post)) (= wpr^0 wpr^post)) (= wr^0 wr^post)) (= wtemp^0 wtemp^post))))
    (cfg_trans2 pc^0 l20 pc^post l18 (and (and (and (and (and (and (and (and (and (and (and (and (and (and (and (and (and (and (and (and (and (and (and (and (and (and (= i1^0 i1^post) (= i2^0 i2^post)) (= i2rev^0 i2rev^post)) (= i3^0 i3^post)) (= i3rev^0 i3rev^post)) (= ibit^0 ibit^post)) (= idim^0 idim^post)) (= ifp1^0 ifp1^post)) (= ifp2^0 ifp2^post)) (= ip1^0 ip1^post)) (= ip2^0 ip2^post)) (= ip3^0 ip3^post)) (= k1^0 k1^post)) (= k2^0 k2^post)) (= n^0 n^post)) (= ndim^0 ndim^post)) (= nprev^0 nprev^post)) (= nrem^0 nrem^post)) (= ntot^0 ntot^post)) (= tempi^0 tempi^post)) (= tempr^0 tempr^post)) (= theta^0 theta^post)) (= wi^0 wi^post)) (= wpi^0 wpi^post)) (= wpr^0 wpr^post)) (= wr^0 wr^post)) (= wtemp^0 wtemp^post)))
    (cfg_trans2 pc^0 l21 pc^post l15 (and (and (and (and (and (and (and (and (and (and (and (and (and (and (and (and (and (and (and (and (and (and (and (and (and (and (and (<= (+ (+ -1 i2^0) ip1^0) (+ 0 i1^0)) (= i1^0 i1^post)) (= i2^0 i2^post)) (= i2rev^0 i2rev^post)) (= i3^0 i3^post)) (= i3rev^0 i3rev^post)) (= ibit^0 ibit^post)) (= idim^0 idim^post)) (= ifp1^0 ifp1^post)) (= ifp2^0 ifp2^post)) (= ip1^0 ip1^post)) (= ip2^0 ip2^post)) (= ip3^0 ip3^post)) (= k1^0 k1^post)) (= k2^0 k2^post)) (= n^0 n^post)) (= ndim^0 ndim^post)) (= nprev^0 nprev^post)) (= nrem^0 nrem^post)) (= ntot^0 ntot^post)) (= tempi^0 tempi^post)) (= tempr^0 tempr^post)) (= theta^0 theta^post)) (= wi^0 wi^post)) (= wpi^0 wpi^post)) (= wpr^0 wpr^post)) (= wr^0 wr^post)) (= wtemp^0 wtemp^post)))
    (cfg_trans2 pc^0 l21 pc^post l20 (and (and (and (and (and (and (and (and (and (and (and (and (and (and (and (and (and (and (and (and (and (and (and (and (and (and (and (<= (+ 0 i1^0) (+ (+ -2 i2^0) ip1^0)) (= i1^0 i1^post)) (= i2^0 i2^post)) (= i2rev^0 i2rev^post)) (= i3^0 i3^post)) (= i3rev^0 i3rev^post)) (= ibit^0 ibit^post)) (= idim^0 idim^post)) (= ifp1^0 ifp1^post)) (= ifp2^0 ifp2^post)) (= ip1^0 ip1^post)) (= ip2^0 ip2^post)) (= ip3^0 ip3^post)) (= k1^0 k1^post)) (= k2^0 k2^post)) (= n^0 n^post)) (= ndim^0 ndim^post)) (= nprev^0 nprev^post)) (= nrem^0 nrem^post)) (= ntot^0 ntot^post)) (= tempi^0 tempi^post)) (= tempr^0 tempr^post)) (= theta^0 theta^post)) (= wi^0 wi^post)) (= wpi^0 wpi^post)) (= wpr^0 wpr^post)) (= wr^0 wr^post)) (= wtemp^0 wtemp^post)))
    (cfg_trans2 pc^0 l19 pc^post l21 (and (and (and (and (and (and (and (and (and (and (and (and (and (and (and (and (and (and (and (and (and (and (and (and (and (and (= i1^0 i1^post) (= i2^0 i2^post)) (= i2rev^0 i2rev^post)) (= i3^0 i3^post)) (= i3rev^0 i3rev^post)) (= ibit^0 ibit^post)) (= idim^0 idim^post)) (= ifp1^0 ifp1^post)) (= ifp2^0 ifp2^post)) (= ip1^0 ip1^post)) (= ip2^0 ip2^post)) (= ip3^0 ip3^post)) (= k1^0 k1^post)) (= k2^0 k2^post)) (= n^0 n^post)) (= ndim^0 ndim^post)) (= nprev^0 nprev^post)) (= nrem^0 nrem^post)) (= ntot^0 ntot^post)) (= tempi^0 tempi^post)) (= tempr^0 tempr^post)) (= theta^0 theta^post)) (= wi^0 wi^post)) (= wpi^0 wpi^post)) (= wpr^0 wpr^post)) (= wr^0 wr^post)) (= wtemp^0 wtemp^post)))
    (cfg_trans2 pc^0 l22 pc^post l15 (and (and (and (and (and (and (and (and (and (and (and (and (and (and (and (and (and (and (and (and (and (and (and (and (and (and (and (<= (+ 0 i2rev^0) (+ 0 i2^0)) (= i1^0 i1^post)) (= i2^0 i2^post)) (= i2rev^0 i2rev^post)) (= i3^0 i3^post)) (= i3rev^0 i3rev^post)) (= ibit^0 ibit^post)) (= idim^0 idim^post)) (= ifp1^0 ifp1^post)) (= ifp2^0 ifp2^post)) (= ip1^0 ip1^post)) (= ip2^0 ip2^post)) (= ip3^0 ip3^post)) (= k1^0 k1^post)) (= k2^0 k2^post)) (= n^0 n^post)) (= ndim^0 ndim^post)) (= nprev^0 nprev^post)) (= nrem^0 nrem^post)) (= ntot^0 ntot^post)) (= tempi^0 tempi^post)) (= tempr^0 tempr^post)) (= theta^0 theta^post)) (= wi^0 wi^post)) (= wpi^0 wpi^post)) (= wpr^0 wpr^post)) (= wr^0 wr^post)) (= wtemp^0 wtemp^post)))
    (cfg_trans2 pc^0 l22 pc^post l19 (and (and (and (and (and (and (and (and (and (and (and (and (and (and (and (and (and (and (and (and (and (and (and (and (and (and (and (<= (+ 1 i2^0) (+ 0 i2rev^0)) (= i1^0 i1^post)) (= i2^0 i2^post)) (= i2rev^0 i2rev^post)) (= i3^0 i3^post)) (= i3rev^0 i3rev^post)) (= ibit^0 ibit^post)) (= idim^0 idim^post)) (= ifp1^0 ifp1^post)) (= ifp2^0 ifp2^post)) (= ip1^0 ip1^post)) (= ip2^0 ip2^post)) (= ip3^0 ip3^post)) (= k1^0 k1^post)) (= k2^0 k2^post)) (= n^0 n^post)) (= ndim^0 ndim^post)) (= nprev^0 nprev^post)) (= nrem^0 nrem^post)) (= ntot^0 ntot^post)) (= tempi^0 tempi^post)) (= tempr^0 tempr^post)) (= theta^0 theta^post)) (= wi^0 wi^post)) (= wpi^0 wpi^post)) (= wpr^0 wpr^post)) (= wr^0 wr^post)) (= wtemp^0 wtemp^post)))
    (cfg_trans2 pc^0 l17 pc^post l16 (and (and (and (and (and (and (and (and (and (and (and (and (and (and (and (and (and (and (and (and (and (and (and (and (and (and (= i1^0 i1^post) (= i2^0 i2^post)) (= i2rev^0 i2rev^post)) (= i3^0 i3^post)) (= i3rev^0 i3rev^post)) (= ibit^0 ibit^post)) (= idim^0 idim^post)) (= ifp1^0 ifp1^post)) (= ifp2^0 ifp2^post)) (= ip1^0 ip1^post)) (= ip2^0 ip2^post)) (= ip3^0 ip3^post)) (= k1^0 k1^post)) (= k2^0 k2^post)) (= n^0 n^post)) (= ndim^0 ndim^post)) (= nprev^0 nprev^post)) (= nrem^0 nrem^post)) (= ntot^0 ntot^post)) (= tempi^0 tempi^post)) (= tempr^0 tempr^post)) (= theta^0 theta^post)) (= wi^0 wi^post)) (= wpi^0 wpi^post)) (= wpr^0 wpr^post)) (= wr^0 wr^post)) (= wtemp^0 wtemp^post)))
    (cfg_trans2 pc^0 l23 pc^post l8 (and (and (and (and (and (and (and (and (and (and (and (and (and (and (and (and (and (and (and (and (and (and (and (and (and (and (and (<= (+ 1 ip2^0) (+ 0 i2^0)) (= ifp1^post (+ 0 ip1^0))) (= i1^0 i1^post)) (= i2^0 i2^post)) (= i2rev^0 i2rev^post)) (= i3^0 i3^post)) (= i3rev^0 i3rev^post)) (= ibit^0 ibit^post)) (= idim^0 idim^post)) (= ifp2^0 ifp2^post)) (= ip1^0 ip1^post)) (= ip2^0 ip2^post)) (= ip3^0 ip3^post)) (= k1^0 k1^post)) (= k2^0 k2^post)) (= n^0 n^post)) (= ndim^0 ndim^post)) (= nprev^0 nprev^post)) (= nrem^0 nrem^post)) (= ntot^0 ntot^post)) (= tempi^0 tempi^post)) (= tempr^0 tempr^post)) (= theta^0 theta^post)) (= wi^0 wi^post)) (= wpi^0 wpi^post)) (= wpr^0 wpr^post)) (= wr^0 wr^post)) (= wtemp^0 wtemp^post)))
    (cfg_trans2 pc^0 l23 pc^post l22 (and (and (and (and (and (and (and (and (and (and (and (and (and (and (and (and (and (and (and (and (and (and (and (and (and (and (and (<= (+ 0 i2^0) (+ 0 ip2^0)) (= i1^0 i1^post)) (= i2^0 i2^post)) (= i2rev^0 i2rev^post)) (= i3^0 i3^post)) (= i3rev^0 i3rev^post)) (= ibit^0 ibit^post)) (= idim^0 idim^post)) (= ifp1^0 ifp1^post)) (= ifp2^0 ifp2^post)) (= ip1^0 ip1^post)) (= ip2^0 ip2^post)) (= ip3^0 ip3^post)) (= k1^0 k1^post)) (= k2^0 k2^post)) (= n^0 n^post)) (= ndim^0 ndim^post)) (= nprev^0 nprev^post)) (= nrem^0 nrem^post)) (= ntot^0 ntot^post)) (= tempi^0 tempi^post)) (= tempr^0 tempr^post)) (= theta^0 theta^post)) (= wi^0 wi^post)) (= wpi^0 wpi^post)) (= wpr^0 wpr^post)) (= wr^0 wr^post)) (= wtemp^0 wtemp^post)))
    (cfg_trans2 pc^0 l11 pc^post l23 (and (and (and (and (and (and (and (and (and (and (and (and (and (and (and (and (and (and (and (and (and (and (and (and (and (and (= i1^0 i1^post) (= i2^0 i2^post)) (= i2rev^0 i2rev^post)) (= i3^0 i3^post)) (= i3rev^0 i3rev^post)) (= ibit^0 ibit^post)) (= idim^0 idim^post)) (= ifp1^0 ifp1^post)) (= ifp2^0 ifp2^post)) (= ip1^0 ip1^post)) (= ip2^0 ip2^post)) (= ip3^0 ip3^post)) (= k1^0 k1^post)) (= k2^0 k2^post)) (= n^0 n^post)) (= ndim^0 ndim^post)) (= nprev^0 nprev^post)) (= nrem^0 nrem^post)) (= ntot^0 ntot^post)) (= tempi^0 tempi^post)) (= tempr^0 tempr^post)) (= theta^0 theta^post)) (= wi^0 wi^post)) (= wpi^0 wpi^post)) (= wpr^0 wpr^post)) (= wr^0 wr^post)) (= wtemp^0 wtemp^post)))
    (cfg_trans2 pc^0 l1 pc^post l24 (and (and (and (and (and (and (and (and (and (and (and (and (and (and (and (and (and (and (and (and (and (and (and (and (and (and (and (<= (+ 1 idim^0) 1) (= i1^0 i1^post)) (= i2^0 i2^post)) (= i2rev^0 i2rev^post)) (= i3^0 i3^post)) (= i3rev^0 i3rev^post)) (= ibit^0 ibit^post)) (= idim^0 idim^post)) (= ifp1^0 ifp1^post)) (= ifp2^0 ifp2^post)) (= ip1^0 ip1^post)) (= ip2^0 ip2^post)) (= ip3^0 ip3^post)) (= k1^0 k1^post)) (= k2^0 k2^post)) (= n^0 n^post)) (= ndim^0 ndim^post)) (= nprev^0 nprev^post)) (= nrem^0 nrem^post)) (= ntot^0 ntot^post)) (= tempi^0 tempi^post)) (= tempr^0 tempr^post)) (= theta^0 theta^post)) (= wi^0 wi^post)) (= wpi^0 wpi^post)) (= wpr^0 wpr^post)) (= wr^0 wr^post)) (= wtemp^0 wtemp^post)))
    (cfg_trans2 pc^0 l1 pc^post l11 (and (and (and (and (and (and (and (and (and (and (and (and (and (and (and (and (and (and (and (and (and (and (and (and (and (and (and (<= 1 (+ 0 idim^0)) (= n^post n^post)) (= nrem^post nrem^post)) (= ip1^post ip1^post)) (= ip2^post ip2^post)) (= ip3^post ip3^post)) (= i2rev^post 1)) (= i1^0 i1^post)) (= i2^0 i2^post)) (= i3^0 i3^post)) (= i3rev^0 i3rev^post)) (= ibit^0 ibit^post)) (= idim^0 idim^post)) (= ifp1^0 ifp1^post)) (= ifp2^0 ifp2^post)) (= k1^0 k1^post)) (= k2^0 k2^post)) (= ndim^0 ndim^post)) (= nprev^0 nprev^post)) (= ntot^0 ntot^post)) (= tempi^0 tempi^post)) (= tempr^0 tempr^post)) (= theta^0 theta^post)) (= wi^0 wi^post)) (= wpi^0 wpi^post)) (= wpr^0 wpr^post)) (= wr^0 wr^post)) (= wtemp^0 wtemp^post)))
    (cfg_trans2 pc^0 l25 pc^post l17 (and (and (and (and (and (and (and (and (and (and (and (and (and (and (and (and (and (and (and (and (and (and (and (and (and (and (= i1^0 i1^post) (= i2^0 i2^post)) (= i2rev^0 i2rev^post)) (= i3^0 i3^post)) (= i3rev^0 i3rev^post)) (= ibit^0 ibit^post)) (= idim^0 idim^post)) (= ifp1^0 ifp1^post)) (= ifp2^0 ifp2^post)) (= ip1^0 ip1^post)) (= ip2^0 ip2^post)) (= ip3^0 ip3^post)) (= k1^0 k1^post)) (= k2^0 k2^post)) (= n^0 n^post)) (= ndim^0 ndim^post)) (= nprev^0 nprev^post)) (= nrem^0 nrem^post)) (= ntot^0 ntot^post)) (= tempi^0 tempi^post)) (= tempr^0 tempr^post)) (= theta^0 theta^post)) (= wi^0 wi^post)) (= wpi^0 wpi^post)) (= wpr^0 wpr^post)) (= wr^0 wr^post)) (= wtemp^0 wtemp^post)))
  )
)
